10
0 1 8
0 2 12
0 3 4
0 4 4
0 5 15
0 6 1
0 7 7
0 8 1
0 9 8
1 2 14
1 3 8
1 4 5
1 5 9
1 6 5
1 7 13
1 8 6
1 9 9
2 3 13
2 4 4
2 5 8
2 6 3
2 7 4
2 8 11
2 9 4
3 4 7
3 5 7
3 6 12
3 7 3
3 8 2
3 9 5
4 5 4
4 6 1
4 7 2
4 8 14
4 9 11
5 6 1
5 7 6
5 8 9
5 9 8
6 7 14
6 8 14
6 9 15
7 8 10
7 9 7
8 9 5
